50 1225
1 2 1
1 3 5
1 4 4
1 5 1
1 6 3
1 7 5
1 8 5
1 9 5
1 10 3
1 11 4
1 12 5
1 13 2
1 14 1
1 15 3
1 16 2
1 17 1
1 18 2
1 19 4
1 20 1
1 21 5
1 22 2
1 23 3
1 24 3
1 25 5
1 26 2
1 27 2
1 28 5
1 29 5
1 30 1
1 31 2
1 32 3
1 33 1
1 34 2
1 35 5
1 36 1
1 37 1
1 38 5
1 39 3
1 40 2
1 41 3
1 42 4
1 43 4
1 44 5
1 45 4
1 46 1
1 47 5
1 48 5
1 49 2
1 50 1
2 3 5
2 4 2
2 5 5
2 6 1
2 7 2
2 8 4
2 9 4
2 10 2
2 11 1
2 12 5
2 13 4
2 14 1
2 15 4
2 16 5
2 17 5
2 18 3
2 19 2
2 20 1
2 21 5
2 22 3
2 23 4
2 24 3
2 25 1
2 26 3
2 27 5
2 28 5
2 29 2
2 30 2
2 31 4
2 32 2
2 33 5
2 34 2
2 35 1
2 36 5
2 37 5
2 38 5
2 39 5
2 40 2
2 41 4
2 42 4
2 43 3
2 44 4
2 45 3
2 46 2
2 47 4
2 48 4
2 49 4
2 50 5
3 4 3
3 5 3
3 6 5
3 7 5
3 8 3
3 9 4
3 10 4
3 11 2
3 12 3
3 13 1
3 14 4
3 15 5
3 16 1
3 17 2
3 18 5
3 19 3
3 20 3
3 21 2
3 22 2
3 23 2
3 24 3
3 25 2
3 26 1
3 27 5
3 28 2
3 29 2
3 30 4
3 31 1
3 32 3
3 33 2
3 34 2
3 35 3
3 36 1
3 37 1
3 38 1
3 39 3
3 40 3
3 41 1
3 42 3
3 43 2
3 44 5
3 45 5
3 46 1
3 47 4
3 48 4
3 49 3
3 50 3
4 5 4
4 6 5
4 7 4
4 8 3
4 9 1
4 10 5
4 11 5
4 12 5
4 13 2
4 14 5
4 15 4
4 16 3
4 17 1
4 18 5
4 19 3
4 20 3
4 21 3
4 22 5
4 23 5
4 24 3
4 25 3
4 26 2
4 27 2
4 28 2
4 29 2
4 30 1
4 31 2
4 32 3
4 33 2
4 34 2
4 35 3
4 36 3
4 37 5
4 38 5
4 39 5
4 40 3
4 41 4
4 42 1
4 43 2
4 44 5
4 45 4
4 46 1
4 47 1
4 48 1
4 49 1
4 50 3
5 6 1
5 7 2
5 8 5
5 9 3
5 10 2
5 11 1
5 12 2
5 13 1
5 14 1
5 15 2
5 16 1
5 17 3
5 18 5
5 19 1
5 20 4
5 21 4
5 22 5
5 23 4
5 24 4
5 25 5
5 26 5
5 27 1
5 28 2
5 29 4
5 30 2
5 31 4
5 32 2
5 33 5
5 34 1
5 35 1
5 36 3
5 37 1
5 38 5
5 39 3
5 40 3
5 41 2
5 42 1
5 43 3
5 44 2
5 45 1
5 46 5
5 47 1
5 48 1
5 49 3
5 50 3
6 7 4
6 8 3
6 9 4
6 10 2
6 11 5
6 12 4
6 13 2
6 14 1
6 15 5
6 16 3
6 17 2
6 18 3
6 19 1
6 20 1
6 21 2
6 22 4
6 23 5
6 24 3
6 25 4
6 26 4
6 27 4
6 28 1
6 29 2
6 30 5
6 31 5
6 32 5
6 33 4
6 34 1
6 35 3
6 36 1
6 37 5
6 38 3
6 39 3
6 40 5
6 41 5
6 42 3
6 43 2
6 44 1
6 45 5
6 46 4
6 47 1
6 48 1
6 49 5
6 50 3
7 8 5
7 9 2
7 10 5
7 11 4
7 12 3
7 13 1
7 14 2
7 15 1
7 16 2
7 17 5
7 18 4
7 19 1
7 20 5
7 21 3
7 22 1
7 23 5
7 24 1
7 25 1
7 26 3
7 27 5
7 28 5
7 29 4
7 30 4
7 31 1
7 32 3
7 33 4
7 34 2
7 35 5
7 36 1
7 37 2
7 38 2
7 39 1
7 40 2
7 41 5
7 42 4
7 43 2
7 44 5
7 45 3
7 46 5
7 47 4
7 48 3
7 49 4
7 50 3
8 9 5
8 10 5
8 11 2
8 12 4
8 13 4
8 14 4
8 15 3
8 16 3
8 17 5
8 18 2
8 19 5
8 20 3
8 21 3
8 22 4
8 23 3
8 24 3
8 25 3
8 26 1
8 27 2
8 28 2
8 29 2
8 30 5
8 31 5
8 32 3
8 33 3
8 34 5
8 35 2
8 36 2
8 37 1
8 38 1
8 39 2
8 40 4
8 41 3
8 42 5
8 43 1
8 44 2
8 45 2
8 46 2
8 47 4
8 48 4
8 49 5
8 50 2
9 10 5
9 11 3
9 12 2
9 13 2
9 14 2
9 15 3
9 16 2
9 17 1
9 18 4
9 19 5
9 20 4
9 21 2
9 22 3
9 23 1
9 24 5
9 25 2
9 26 2
9 27 2
9 28 5
9 29 5
9 30 4
9 31 4
9 32 2
9 33 3
9 34 3
9 35 3
9 36 2
9 37 5
9 38 3
9 39 5
9 40 2
9 41 1
9 42 4
9 43 2
9 44 1
9 45 4
9 46 1
9 47 1
9 48 3
9 49 1
9 50 4
10 11 1
10 12 3
10 13 3
10 14 1
10 15 3
10 16 3
10 17 5
10 18 5
10 19 4
10 20 2
10 21 1
10 22 3
10 23 5
10 24 5
10 25 1
10 26 5
10 27 3
10 28 2
10 29 3
10 30 5
10 31 3
10 32 5
10 33 2
10 34 5
10 35 4
10 36 2
10 37 3
10 38 1
10 39 2
10 40 4
10 41 2
10 42 3
10 43 5
10 44 1
10 45 3
10 46 2
10 47 1
10 48 2
10 49 4
10 50 2
11 12 4
11 13 2
11 14 5
11 15 2
11 16 4
11 17 3
11 18 3
11 19 2
11 20 2
11 21 1
11 22 1
11 23 5
11 24 5
11 25 2
11 26 2
11 27 1
11 28 4
11 29 2
11 30 4
11 31 3
11 32 4
11 33 3
11 34 2
11 35 4
11 36 2
11 37 1
11 38 4
11 39 5
11 40 2
11 41 2
11 42 5
11 43 5
11 44 1
11 45 3
11 46 1
11 47 2
11 48 4
11 49 4
11 50 3
12 13 1
12 14 5
12 15 1
12 16 1
12 17 1
12 18 4
12 19 4
12 20 1
12 21 1
12 22 3
12 23 4
12 24 1
12 25 2
12 26 5
12 27 1
12 28 5
12 29 1
12 30 1
12 31 4
12 32 4
12 33 2
12 34 1
12 35 5
12 36 5
12 37 2
12 38 2
12 39 3
12 40 3
12 41 2
12 42 1
12 43 4
12 44 2
12 45 1
12 46 3
12 47 5
12 48 3
12 49 2
12 50 5
13 14 4
13 15 4
13 16 3
13 17 2
13 18 2
13 19 1
13 20 1
13 21 5
13 22 3
13 23 2
13 24 2
13 25 1
13 26 1
13 27 3
13 28 5
13 29 4
13 30 3
13 31 2
13 32 4
13 33 2
13 34 2
13 35 4
13 36 4
13 37 1
13 38 3
13 39 4
13 40 2
13 41 4
13 42 4
13 43 1
13 44 3
13 45 4
13 46 1
13 47 5
13 48 3
13 49 1
13 50 5
14 15 2
14 16 5
14 17 5
14 18 2
14 19 1
14 20 5
14 21 3
14 22 5
14 23 3
14 24 3
14 25 1
14 26 4
14 27 5
14 28 5
14 29 4
14 30 1
14 31 1
14 32 3
14 33 2
14 34 2
14 35 5
14 36 4
14 37 4
14 38 3
14 39 1
14 40 4
14 41 4
14 42 5
14 43 3
14 44 5
14 45 1
14 46 4
14 47 3
14 48 2
14 49 3
14 50 3
15 16 2
15 17 4
15 18 3
15 19 4
15 20 4
15 21 3
15 22 1
15 23 3
15 24 4
15 25 4
15 26 4
15 27 4
15 28 1
15 29 1
15 30 4
15 31 5
15 32 1
15 33 2
15 34 2
15 35 3
15 36 2
15 37 5
15 38 1
15 39 2
15 40 2
15 41 1
15 42 1
15 43 3
15 44 4
15 45 2
15 46 5
15 47 5
15 48 4
15 49 5
15 50 5
16 17 5
16 18 2
16 19 3
16 20 5
16 21 4
16 22 5
16 23 4
16 24 5
16 25 1
16 26 1
16 27 2
16 28 4
16 29 3
16 30 3
16 31 5
16 32 2
16 33 5
16 34 3
16 35 5
16 36 4
16 37 4
16 38 2
16 39 3
16 40 5
16 41 2
16 42 4
16 43 5
16 44 1
16 45 5
16 46 1
16 47 4
16 48 4
16 49 1
16 50 5
17 18 4
17 19 1
17 20 1
17 21 1
17 22 2
17 23 1
17 24 2
17 25 1
17 26 2
17 27 3
17 28 5
17 29 5
17 30 2
17 31 5
17 32 3
17 33 1
17 34 1
17 35 3
17 36 4
17 37 1
17 38 1
17 39 1
17 40 2
17 41 1
17 42 5
17 43 4
17 44 3
17 45 5
17 46 5
17 47 5
17 48 3
17 49 5
17 50 4
18 19 3
18 20 3
18 21 1
18 22 5
18 23 4
18 24 5
18 25 5
18 26 1
18 27 3
18 28 1
18 29 2
18 30 4
18 31 1
18 32 5
18 33 2
18 34 4
18 35 1
18 36 2
18 37 4
18 38 1
18 39 5
18 40 4
18 41 5
18 42 4
18 43 5
18 44 3
18 45 3
18 46 3
18 47 2
18 48 2
18 49 5
18 50 1
19 20 2
19 21 2
19 22 1
19 23 1
19 24 5
19 25 5
19 26 1
19 27 4
19 28 5
19 29 2
19 30 2
19 31 3
19 32 3
19 33 2
19 34 1
19 35 2
19 36 1
19 37 1
19 38 2
19 39 3
19 40 1
19 41 3
19 42 1
19 43 2
19 44 1
19 45 2
19 46 2
19 47 3
19 48 2
19 49 1
19 50 3
20 21 2
20 22 3
20 23 3
20 24 3
20 25 3
20 26 4
20 27 3
20 28 2
20 29 5
20 30 3
20 31 2
20 32 2
20 33 2
20 34 4
20 35 4
20 36 1
20 37 4
20 38 5
20 39 2
20 40 2
20 41 2
20 42 1
20 43 4
20 44 5
20 45 4
20 46 5
20 47 3
20 48 2
20 49 2
20 50 4
21 22 5
21 23 1
21 24 2
21 25 2
21 26 5
21 27 2
21 28 3
21 29 3
21 30 5
21 31 2
21 32 4
21 33 5
21 34 2
21 35 1
21 36 1
21 37 4
21 38 1
21 39 5
21 40 3
21 41 1
21 42 5
21 43 3
21 44 5
21 45 1
21 46 2
21 47 2
21 48 5
21 49 3
21 50 1
22 23 1
22 24 1
22 25 3
22 26 5
22 27 1
22 28 3
22 29 2
22 30 1
22 31 3
22 32 2
22 33 3
22 34 2
22 35 3
22 36 1
22 37 2
22 38 1
22 39 4
22 40 5
22 41 1
22 42 5
22 43 2
22 44 2
22 45 1
22 46 1
22 47 1
22 48 1
22 49 1
22 50 3
23 24 4
23 25 3
23 26 2
23 27 2
23 28 1
23 29 1
23 30 4
23 31 5
23 32 5
23 33 1
23 34 5
23 35 4
23 36 3
23 37 3
23 38 3
23 39 4
23 40 4
23 41 4
23 42 3
23 43 4
23 44 2
23 45 1
23 46 1
23 47 3
23 48 4
23 49 1
23 50 2
24 25 4
24 26 2
24 27 4
24 28 1
24 29 5
24 30 3
24 31 2
24 32 3
24 33 4
24 34 5
24 35 4
24 36 1
24 37 1
24 38 3
24 39 4
24 40 2
24 41 5
24 42 2
24 43 1
24 44 3
24 45 1
24 46 1
24 47 4
24 48 1
24 49 2
24 50 1
25 26 2
25 27 1
25 28 1
25 29 5
25 30 2
25 31 3
25 32 5
25 33 3
25 34 3
25 35 3
25 36 1
25 37 2
25 38 4
25 39 3
25 40 2
25 41 2
25 42 3
25 43 1
25 44 5
25 45 3
25 46 2
25 47 1
25 48 2
25 49 2
25 50 4
26 27 5
26 28 5
26 29 1
26 30 1
26 31 4
26 32 3
26 33 2
26 34 3
26 35 5
26 36 5
26 37 1
26 38 5
26 39 2
26 40 1
26 41 4
26 42 5
26 43 5
26 44 2
26 45 1
26 46 4
26 47 5
26 48 2
26 49 3
26 50 2
27 28 3
27 29 3
27 30 2
27 31 2
27 32 2
27 33 4
27 34 2
27 35 4
27 36 3
27 37 5
27 38 3
27 39 2
27 40 2
27 41 2
27 42 2
27 43 1
27 44 3
27 45 3
27 46 1
27 47 4
27 48 2
27 49 5
27 50 2
28 29 2
28 30 2
28 31 1
28 32 2
28 33 5
28 34 3
28 35 4
28 36 2
28 37 1
28 38 5
28 39 2
28 40 5
28 41 2
28 42 1
28 43 1
28 44 4
28 45 2
28 46 5
28 47 4
28 48 5
28 49 3
28 50 2
29 30 4
29 31 4
29 32 4
29 33 3
29 34 1
29 35 5
29 36 5
29 37 5
29 38 1
29 39 2
29 40 3
29 41 3
29 42 1
29 43 5
29 44 5
29 45 1
29 46 1
29 47 4
29 48 5
29 49 1
29 50 5
30 31 5
30 32 5
30 33 4
30 34 3
30 35 1
30 36 1
30 37 3
30 38 1
30 39 4
30 40 5
30 41 1
30 42 4
30 43 4
30 44 2
30 45 2
30 46 4
30 47 5
30 48 1
30 49 4
30 50 3
31 32 2
31 33 5
31 34 3
31 35 1
31 36 3
31 37 5
31 38 5
31 39 3
31 40 3
31 41 4
31 42 3
31 43 5
31 44 2
31 45 2
31 46 3
31 47 4
31 48 2
31 49 3
31 50 1
32 33 4
32 34 3
32 35 1
32 36 2
32 37 1
32 38 1
32 39 1
32 40 1
32 41 5
32 42 3
32 43 5
32 44 5
32 45 1
32 46 5
32 47 2
32 48 1
32 49 2
32 50 5
33 34 4
33 35 5
33 36 4
33 37 4
33 38 5
33 39 2
33 40 3
33 41 3
33 42 5
33 43 5
33 44 1
33 45 4
33 46 2
33 47 3
33 48 3
33 49 2
33 50 3
34 35 2
34 36 4
34 37 2
34 38 2
34 39 5
34 40 1
34 41 2
34 42 3
34 43 1
34 44 3
34 45 1
34 46 1
34 47 1
34 48 3
34 49 2
34 50 4
35 36 3
35 37 3
35 38 1
35 39 2
35 40 4
35 41 1
35 42 4
35 43 3
35 44 5
35 45 2
35 46 4
35 47 1
35 48 4
35 49 5
35 50 1
36 37 2
36 38 1
36 39 2
36 40 3
36 41 1
36 42 1
36 43 3
36 44 2
36 45 2
36 46 1
36 47 5
36 48 1
36 49 4
36 50 5
37 38 3
37 39 3
37 40 5
37 41 3
37 42 1
37 43 1
37 44 2
37 45 4
37 46 2
37 47 4
37 48 3
37 49 5
37 50 1
38 39 5
38 40 1
38 41 2
38 42 5
38 43 3
38 44 1
38 45 3
38 46 3
38 47 1
38 48 4
38 49 4
38 50 4
39 40 4
39 41 5
39 42 4
39 43 3
39 44 4
39 45 3
39 46 2
39 47 5
39 48 5
39 49 5
39 50 2
40 41 1
40 42 2
40 43 5
40 44 4
40 45 4
40 46 5
40 47 5
40 48 2
40 49 5
40 50 3
41 42 2
41 43 4
41 44 2
41 45 3
41 46 4
41 47 1
41 48 1
41 49 5
41 50 1
42 43 3
42 44 3
42 45 3
42 46 2
42 47 1
42 48 1
42 49 5
42 50 2
43 44 3
43 45 4
43 46 4
43 47 5
43 48 1
43 49 1
43 50 4
44 45 3
44 46 4
44 47 2
44 48 4
44 49 3
44 50 3
45 46 4
45 47 1
45 48 4
45 49 3
45 50 5
46 47 1
46 48 2
46 49 3
46 50 1
47 48 3
47 49 5
47 50 5
48 49 2
48 50 3
49 50 5
